p cnf 11 22
11 10 7 0
-11 10 -5 0
11 -10 -2 0
11 -9 8 0
11 -9 -7 0
-11 -7 -6 0
11 -7 -3 0
-11 5 2 0
11 3 -2 0
10 9 -4 0
10 9 3 0
-10 8 5 0
-10 8 -2 0
-10 7 6 0
-9 8 3 0
9 5 -1 0
-8 -6 -2 0
7 -5 -4 0
-6 -2 1 0
-5 -4 -1 0
5 4 1 0
4 3 -2 0
